{"lblp_lower": [818.5632035961347, 825.4675000000002, 827.3000000000001], "cuttingPlaneBendInfo": [{"tot_cut_value": 0, "TOT_gen_cut": 0, "tot_time_opt": 0, "max_time_opt": 0}, {"tot_cut_value": 0, "TOT_gen_cut": 0, "tot_time_opt": 0, "max_time_opt": 0}, {"tot_cut_value": 0, "TOT_gen_cut": 0, "tot_time_opt": 0, "max_time_opt": 0}], "time_compress": [0, 0, 0], "ub_lp": [869.3333333333335, 856.3000000000002, 827.3000000000002], "prob_sizes_at_start": [{"timeGraph": 102, "capGraph": 102, "ngGraph": 102}, {"timeGraph": 130, "capGraph": 239, "ngGraph": 120}, {"timeGraph": 130, "capGraph": 285, "ngGraph": 126}], "prob_sizes_after_compress": [{"timeGraph": 3, "capGraph": 3, "ngGraph": 63}, {"timeGraph": 16, "capGraph": 101, "ngGraph": 24}, {"timeGraph": 12, "capGraph": 44, "ngGraph": 35}], "prob_sizes_after_split": [{"timeGraph": 130, "capGraph": 239, "ngGraph": 120}, {"timeGraph": 130, "capGraph": 285, "ngGraph": 126}, {"timeGraph": 104, "capGraph": 189, "ngGraph": 107}], "did_compress": [true, true, true], "lp_time_project": [0.6594729423522949, 0.16494274139404297, 0.15489935874938965], "lp_time_LB": [0.1244649887084961, 0.03679203987121582, 0.021754980087280273], "ilp_time": [], "history_of_graphs_by_iter": [], "ROOT_LP_PRIOR_ADDING_CUTS": 827.3000000000001, "OUR_ilp_objective": 827.3000000000001, "OUR_MIP_Lower_Bound": 827.3000000000001, "OUR_ilp_time": 0.022357940673828125, "OUR_gurobi_MILP_str": "Gurobi Optimizer version 12.0.1 build v12.0.1rc0 (mac64[arm] - Darwin 24.5.0 24F74)\n\nCPU model: Apple M1\nThread count: 8 physical cores, 8 logical processors, using up to 8 threads\n\nNon-default parameters:\nTimeLimit  1000\n\nWLS license 2690165 - registered to Optym\nOptimize a model with 28963 rows, 7365 columns and 85850 nonzeros\nModel fingerprint: 0x1a975bca\nVariable types: 1748 continuous, 5617 integer (5617 binary)\nCoefficient statistics:\n  Matrix range     [3e-01, 7e+02]\n  Objective range  [1e+00, 1e+02]\n  Bounds range     [1e+00, 1e+03]\n  RHS range        [1e+00, 8e+02]\nPresolve removed 28959 rows and 7360 columns\nPresolve time: 0.02s\nPresolved: 4 rows, 5 columns, 13 nonzeros\nVariable types: 2 continuous, 3 integer (3 binary)\nFound heuristic solution: objective 895.3000000\nFound heuristic solution: objective 827.3000000\n\nExplored 0 nodes (0 simplex iterations) in 0.02 seconds (0.04 work units)\nThread count was 8 (of 8 available processors)\n\nSolution count 2: 827.3 895.3 \n\nOptimal solution found (tolerance 1.00e-04)\nBest objective 8.273000000000e+02, best bound 8.273000000000e+02, gap 0.0000%\n", "jy_opt": {"ParetoEps": 1e-05, "turn_off_time_windows": false, "deactivate_time_graph": false, "deactivate_demand_graph": false, "epsilon": 0.0001, "weight_slack_projector": 1e-05, "weight_compress": 0.01, "num_cust_use": 100, "dem_step_sz": 1, "time_step_sz": 10, "use_compression": 1, "max_iterations_loop_compress_project": 100, "do_round_dist_times": 1, "my_shift_bet_time_win": 0.0001, "num_terms_per_bin_init_construct": 100, "allOneBig_init": 0, "min_inc_2_compress": 0.1, "save_graph_each_iter": 0, "use_Xpress": 0, "use_ineq": 1, "xpress_file_loc": "/Users/julian/Documents/FICO_Xpress_Config/xpauth.xpr", "run_baseline": 0, "verbose": 0, "use_NG_graph": 1, "num_NG": 9, "in_demo_mode": 0, "threshold_split": 0.01, "offset_cost_edge_project": 0, "use_classic_compress": 1, "use_classic_compress_last": 0, "num_thresh_split_projector": 10, "lplb_solver": 4, "compresss_solver": 0, "proj_solver": 4, "use_julians_custom_lp_solver": 0, "do_ilp": 1, "roundingDiscretization_num_digits_keep": 3, "doExrtraRemovalEdgesLB": 0, "use_gurobi": 1, "max_ILP_time": 1000, "use_fancy_ng_graph": 1, "use_dem_graph": 1, "use_time_graph": 1, "num_multiplys_demand": 0, "DEBUG_ALLOW_DUMB_EDGES": 0, "add_all_ng_split_at_end": 0, "do_split_based_init": 1, "think_compress": 0, "use_delta_in_milp": [1], "use_delta_in_lp": 1, "turn_off_non_active_fg_project": 0, "use_new_valid_ineq": 0, "digit_mult_use": 10, "use_branch_on_g": true, "LAB_MP_ON": 0, "LAB_MP_neigh_use_power": 10, "LAB_MP_num_ineq_use": 10, "do_remove_actions_from_incumbant": 1, "ub_use_remove": 827.3, "use_packing_in_construction": 1, "maxVarsAdd_in_ITER": 10, "use_ng_size_init": 0, "do_presolve": 0, "use_diving_ineq": 0, "BEND_MIN_LP_OBJECTIVE_CUT": 0.1, "BEND_USE_RAND": 0, "BEND_MAX_SIZE_CHOOSE_K": 260, "BEND_VAL_STOP_ADDING_CUTS": 100000000, "BEND_MY_SIZES_USE": [9], "NUMERICAL_BEND_OFFSET_COST_CUT": 0.0001, "NUMERICAL_BEND_EPSILON_MULT_PARETO_OBJ": 0.001, "NO_PARETO_NUMERICAL_BEND_OFFSET_COST_CUT": 0, "NO_PARETO_BEND_VAL_STOP_ADDING_CUTS": 1, "NO_PARETO_EPSILON_MAX_VAL_CON": 0.01, "BENDERS_NEIGH_SZ_USE": 9, "Actions_of_given_sol": [], "all_vars_binary": 0, "use_ng": 1, "restore_after_each_step": 1, "compress_solver": 1, "DEBUG_NG_turn_off_CLEAN": false, "max_nodes_split": Infinity}, "output_ilp_solution": {"act_0_74": 1, "act_1_0": 1, "act_2_6": 1, "act_3_1": 1, "act_4_2": 1, "act_5_3": 1, "act_6_7": 1, "act_7_9": 1, "act_8_5": 1, "act_9_10": 1, "act_10_8": 1, "act_11_101": 1, "act_12_16": 1, "act_13_11": 1, "act_14_15": 1, "act_15_13": 1, "act_16_17": 1, "act_17_18": 1, "act_18_14": 1, "act_19_23": 1, "act_20_101": 1, "act_21_20": 1, "act_22_21": 1, "act_23_24": 1, "act_24_26": 1, "act_25_22": 1, "act_26_28": 1, "act_27_25": 1, "act_28_29": 1, "act_29_27": 1, "act_30_34": 1, "act_31_32": 1, "act_32_30": 1, "act_33_101": 1, "act_34_36": 1, "act_35_33": 1, "act_36_37": 1, "act_37_38": 1, "act_38_35": 1, "act_39_43": 1, "act_40_39": 1, "act_41_40": 1, "act_42_41": 1, "act_43_45": 1, "act_44_47": 1, "act_45_44": 1, "act_46_101": 1, "act_47_50": 1, "act_48_46": 1, "act_49_51": 1, "act_50_49": 1, "act_51_48": 1, "act_52_55": 1, "act_53_52": 1, "act_54_53": 1, "act_55_57": 1, "act_56_54": 1, "act_57_59": 1, "act_58_101": 1, "act_59_58": 1, "act_60_63": 1, "act_61_73": 1, "act_62_61": 1, "act_63_67": 1, "act_64_62": 1, "act_65_68": 1, "act_66_64": 1, "act_67_65": 1, "act_68_101": 1, "act_69_72": 1, "act_70_69": 1, "act_71_60": 1, "act_72_76": 1, "act_73_71": 1, "act_74_101": 1, "act_75_70": 1, "act_76_78": 1, "act_77_75": 1, "act_78_79": 1, "act_79_101": 1, "act_80_77": 1, "act_81_83": 1, "act_82_81": 1, "act_83_84": 1, "act_84_87": 1, "act_85_82": 1, "act_86_85": 1, "act_87_88": 1, "act_88_90": 1, "act_89_86": 1, "act_90_101": 1, "act_91_92": 1, "act_92_96": 1, "act_93_91": 1, "act_94_93": 1, "act_95_94": 1, "act_96_99": 1, "act_97_95": 1, "act_98_101": 1, "act_99_98": 1, "act_100_4": 1, "act_100_12": 1, "act_100_19": 1, "act_100_31": 1, "act_100_42": 1, "act_100_56": 1, "act_100_66": 1, "act_100_80": 1, "act_100_89": 1, "act_100_97": 1}, "Actions_of_given_sol": "none just used source and sink terms", "actions_used": ["act_0_74", "act_1_0", "act_2_6", "act_3_1", "act_4_2", "act_5_3", "act_6_7", "act_7_9", "act_8_5", "act_9_10", "act_10_8", "act_11_101", "act_12_16", "act_13_11", "act_14_15", "act_15_13", "act_16_17", "act_17_18", "act_18_14", "act_19_23", "act_20_101", "act_21_20", "act_22_21", "act_23_24", "act_24_26", "act_25_22", "act_26_28", "act_27_25", "act_28_29", "act_29_27", "act_30_34", "act_31_32", "act_32_30", "act_33_101", "act_34_36", "act_35_33", "act_36_37", "act_37_38", "act_38_35", "act_39_43", "act_40_39", "act_41_40", "act_42_41", "act_43_45", "act_44_47", "act_45_44", "act_46_101", "act_47_50", "act_48_46", "act_49_51", "act_50_49", "act_51_48", "act_52_55", "act_53_52", "act_54_53", "act_55_57", "act_56_54", "act_57_59", "act_58_101", "act_59_58", "act_60_63", "act_61_73", "act_62_61", "act_63_67", "act_64_62", "act_65_68", "act_66_64", "act_67_65", "act_68_101", "act_69_72", "act_70_69", "act_71_60", "act_72_76", "act_73_71", "act_74_101", "act_75_70", "act_76_78", "act_77_75", "act_78_79", "act_79_101", "act_80_77", "act_81_83", "act_82_81", "act_83_84", "act_84_87", "act_85_82", "act_86_85", "act_87_88", "act_88_90", "act_89_86", "act_90_101", "act_91_92", "act_92_96", "act_93_91", "act_94_93", "act_95_94", "act_96_99", "act_97_95", "act_98_101", "act_99_98", "act_100_4", "act_100_12", "act_100_19", "act_100_31", "act_100_42", "act_100_56", "act_100_66", "act_100_80", "act_100_89", "act_100_97"], "init_default_solution_is_empty": false, "objective_of_initial_sol": 5763.600000000003, "my_paths": "[[100, 4, 2, 6, 7, 9, 10, 8, 5, 3, 1, 0, 74, 101], [100, 12, 16, 17, 18, 14, 15, 13, 11, 101], [100, 19, 23, 24, 26, 28, 29, 27, 25, 22, 21, 20, 101], [100, 31, 32, 30, 34, 36, 37, 38, 35, 33, 101], [100, 42, 41, 40, 39, 43, 45, 44, 47, 50, 49, 51, 48, 46, 101], [100, 56, 54, 53, 52, 55, 57, 59, 58, 101], [100, 66, 64, 62, 61, 73, 71, 60, 63, 67, 65, 68, 101], [100, 80, 77, 75, 70, 69, 72, 76, 78, 79, 101], [100, 89, 86, 85, 82, 81, 83, 84, 87, 88, 90, 101], [100, 97, 95, 94, 93, 91, 92, 96, 99, 98, 101]]"}